(set-info :Origin "This instance was generated by: BanditFuzz-- an RL fuzzer for SMT solvers" )
(set-info :Author "Joe Scott, Fed Mora, Vijay Ganesh" )
(set-info :Contact "Joe Scott, joseph.scott@uwaterloo.ca")
(set-logic QF_BV)
(declare-const bool_0 Bool)
(declare-const bool_1 Bool)
(declare-const bool_2 Bool)
(declare-const bool_3 Bool)
(declare-const bool_4 Bool)
(declare-const bv_0 (_ BitVec 32))
(declare-const bv_1 (_ BitVec 32))
(declare-const bv_2 (_ BitVec 32))
(declare-const bv_3 (_ BitVec 32))
(declare-const bv_4 (_ BitVec 32))
(assert (=> (bvugt (bvmul #xf5f0a0b5  bv_1) (bvshl bv_4 #x9d5dfff4 )) (bvuge (bvudiv #x68c78d83  #xd63bc025 ) (bvudiv #xa9f8fc43  bv_3))))
(assert (or (bvsgt (bvmul #x1ff37a46  #x197ef185 ) (bvand bv_3 bv_3)) (not (bvsle bv_1 bv_0))))
(assert (bvugt (bvadd (bvadd bv_3 #xbe1c13fe ) (bvsrem #x0fd3e36c  bv_2)) (bvashr (bvxnor bv_0 bv_3) (bvadd bv_3 bv_1))))
(assert (bvugt (bvnor (bvnand #x0d992d60  #xdc8e508f ) (bvshl #xcc5b4c2f  #x3c8985ac )) (bvmul (bvand bv_2 #xfab4ffd8 ) (bvsdiv bv_0 bv_3))))
(assert (bvsge (bvsmod (bvnand #x8911a5e0  bv_2) (bvlshr bv_2 bv_2)) (bvmul (bvsdiv bv_1 bv_3) (bvsrem #x781762ab  #xe02bf488 ))))
(check-sat)
(exit)
